************************************************************************
file with basedata            : cr447_.bas
initial value random generator: 1044429320
************************************************************************
projects                      :  1
jobs (incl. supersource/sink ):  18
horizon                       :  129
RESOURCES
  - renewable                 :  4   R
  - nonrenewable              :  2   N
  - doubly constrained        :  0   D
************************************************************************
PROJECT INFORMATION:
pronr.  #jobs rel.date duedate tardcost  MPM-Time
    1     16      0       14       13       14
************************************************************************
PRECEDENCE RELATIONS:
jobnr.    #modes  #successors   successors
   1        1          3           2   3   4
   2        3          3           5   7   8
   3        3          3          10  11  12
   4        3          3           6   9  16
   5        3          3           6  13  16
   6        3          2          10  15
   7        3          2          11  14
   8        3          3          10  11  15
   9        3          2          14  17
  10        3          1          17
  11        3          2          16  17
  12        3          1          13
  13        3          1          14
  14        3          1          15
  15        3          1          18
  16        3          1          18
  17        3          1          18
  18        1          0        
************************************************************************
REQUESTS/DURATIONS:
jobnr. mode duration  R 1  R 2  R 3  R 4  N 1  N 2
------------------------------------------------------------------------
  1      1     0       0    0    0    0    0    0
  2      1     3       8    7    3    9    8    8
         2     7       8    6    3    7    6    6
         3     8       7    3    2    1    6    6
  3      1     3       6    6    5   10    7    3
         2     4       4    6    5   10    6    3
         3     9       4    5    4   10    4    3
  4      1     4       8    6   10    2    6    6
         2     8       8    4   10    2    5    5
         3     9       4    2    9    2    5    5
  5      1     5       8    1    5    9    9    6
         2     7       8    1    5    4    9    6
         3    10       7    1    5    4    9    3
  6      1     1       3    7    6   10    1    8
         2     5       3    6    4   10    1    6
         3     9       2    2    3   10    1    4
  7      1     2       4    8    6    9    8    8
         2     4       4    7    4    9    8    5
         3     8       4    5    2    9    8    4
  8      1     3      10    9    8   10    7    6
         2     8       3    3    8    7    4    5
         3     8       4    3    7    9    5    3
  9      1     3       9    6    7    6    2    5
         2     5       7    4    6    6    2    5
         3     6       7    3    6    5    2    4
 10      1     3       4    6    9    9    6    5
         2     4       3    6    5    8    6    2
         3     5       3    3    5    7    3    1
 11      1     4       8    6    7    9    8    6
         2     5       7    6    5    9    7    6
         3    10       5    2    2    9    5    6
 12      1     2       7    9    6    6    8    5
         2     7       4    8    3    6    4    4
         3     7       3    8    1    4    5    4
 13      1     1       7    6    6    5    6    8
         2     3       4    6    5    5    4    7
         3     5       3    5    3    4    3    7
 14      1     2       3    8    9    7    7    6
         2     6       3    7    8    7    7    3
         3    10       3    6    7    6    6    1
 15      1     1       4    6    7    8    4    8
         2     5       3    4    6    8    3    6
         3     9       2    3    3    7    3    4
 16      1     2       9    6    6   10    8    4
         2     2      10    6    6    9    9    5
         3     8       9    2    6    5    6    4
 17      1     2       6    8    6    2    4    6
         2     5       6    8    4    2    3    5
         3     8       4    7    1    2    3    3
 18      1     0       0    0    0    0    0    0
************************************************************************
RESOURCEAVAILABILITIES:
  R 1  R 2  R 3  R 4  N 1  N 2
   31   27   29   33   86   81
************************************************************************
